<?xml version="1.0" encoding="UTF-8"?>
<xrdMeasurements xmlns="http://www.xrdml.com/XRDMeasurement/1.5" xmlns:xsi="http://www.w3.org/2001/XMLSchema-instance" xsi:schemaLocation="http://www.xrdml.com/XRDMeasurement/1.5 http://www.xrdml.com/XRDMeasurement/1.5/XRDMeasurement.xsd" status="Aborted">
	<comment>
		<entry>Configuration=Bracket Flat sample, Owner=User-1, Creation date=15/02/2016 11:36:32</entry>
		<entry>Goniometer=PW3050/60 (Theta/2Theta); Minimum step size 2Theta:0.001; Minimum step size Omega:0.001</entry>
		<entry>Sample stage=PW3071/xx Bracket</entry>
		<entry>Diffractometer system=XPERT-PRO</entry>
		<entry>Measurement program=C:\PANalytical\Data Collector\Programs\Adrien_Flat-10-90-140s-0p026-0h29.xrdmp, Identifier={16D91615-2B0E-41DA-97ED-8A4751397E86}</entry>
	</comment>
	<sample type="To be analyzed">
		<id>798-Ca3Co4O9(Bi)-850C</id>
		<name>798-Ca3Co4O9(Bi)-850C</name>
		<preparedBy></preparedBy>
	</sample>
	<xrdMeasurement measurementType="Scan" status="Aborted" sampleMode="Reflection">
		<comment>
			<entry/>
		</comment>
		<usedWavelength intended="K-Alpha">
			<kAlpha1 unit="Angstrom">1.5405980</kAlpha1>
			<kAlpha2 unit="Angstrom">1.5444260</kAlpha2>
			<kBeta unit="Angstrom">1.3922500</kBeta>
			<ratioKAlpha2KAlpha1>0.0000</ratioKAlpha2KAlpha1>
		</usedWavelength>
		<incidentBeamPath>
			<radius unit="mm">240.00</radius>
			<xRayTube id="1010048" name="Empyrean Cu LFF HR (9430 033 7310x) DK419739">
				<tension unit="kV">45</tension>
				<current unit="mA">40</current>
				<anodeMaterial>Cu</anodeMaterial>
				<focus type="Line">
					<length unit="mm">12.0</length>
					<width unit="mm">0.4</width>
					<takeOffAngle unit="deg">6.0</takeOffAngle>
				</focus>
			</xRayTube>
			<monochromator id="23010013" name="Incident beam Johansson 1xGe111 Cu/Co" hybrid="false">
				<crystal type="Symmetric" shape="Curved">Ge</crystal>
				<numberOfReflections>1</numberOfReflections>
				<hkl>
					<h>1</h>
					<k>1</k>
					<l>1</l>
				</hkl>
			</monochromator>
			<sollerSlit id="21010002" name="Soller slits 0.04 rad.">
				<opening unit="rad">0.0400</opening>
			</sollerSlit>
			<mask id="22080002" name="Fixed incident beam mask 10 mm">
				<width unit="mm">6.60</width>
			</mask>
			<antiScatterSlit id="22010002" name="Fixed slit 2°" xsi:type="fixedAntiScatterSlitType">
				<height unit="mm">3.03</height>
			</antiScatterSlit>
			<divergenceSlit id="22010012" name="Programmable divergence slit" xsi:type="fixedDivergenceSlitType">
				<distanceToSample unit="mm">140.00</distanceToSample>
				<angle unit="deg">1</angle>
			</divergenceSlit>
		</incidentBeamPath>
		<diffractedBeamPath>
			<radius unit="mm">240.00</radius>
			<antiScatterSlit id="22090007" name="Anti-scatter slit 13.0 mm (X'Celerator)" xsi:type="fixedAntiScatterSlitType">
				<height unit="mm">13.00</height>
			</antiScatterSlit>
			<sollerSlit id="21010002" name="Soller slits 0.04 rad.">
				<opening unit="rad">0.0400</opening>
			</sollerSlit>
			<detector id="7010015" name="PIXcel-1D detector" xsi:type="rtmsDetectorType">
				<phd>
					<lowerLevel unit="%">25.0</lowerLevel>
					<upperLevel unit="%">70.0</upperLevel>
				</phd>
				<mode>Scanning</mode>
				<activeLength unit="deg">3.347</activeLength>
			</detector>
		</diffractedBeamPath>
		<scan appendNumber="0" mode="Continuous" scanAxis="Gonio" status="Aborted">
			<header>
				<startTimeStamp>2025-03-25T14:49:51+01:00</startTimeStamp>
				<endTimeStamp>2025-03-25T15:11:28+01:00</endTimeStamp>
				<author>
					<name>utilisateur</name>
				</author>
				<source>
					<applicationSoftware version="4.0">Data Collector</applicationSoftware>
					<instrumentControlSoftware version="2.2B">XPERT-PRO</instrumentControlSoftware>
					<instrumentID>0000000038005439</instrumentID>
				</source>
			</header>
			<dataPoints>
				<positions axis="2Theta" unit="deg">
					<startPosition>10.01013028</startPosition>
					<endPosition>68.20354234</endPosition>
				</positions>
				<positions axis="Omega" unit="deg">
					<startPosition>5.00506514</startPosition>
					<endPosition>34.10177117</endPosition>
				</positions>
				<commonCountingTime unit="seconds">137.190</commonCountingTime>
				<intensities unit="counts">56622 56619 56836 56874 56765 56938 56672 57387 56889 56276 57019 56767 56770 56788 56716 57161 56954 57376 56956 57308 57296 57158 57256 56571 57158 57113 56937 57165 57121 56657 57222 57237 57424 57441 56891 56982 57153 57341 57617 57184 56845 56875 56957 57186 57575 57757 57203 57405 57333 57230 57554 57547 57189 57568 57293 57131 57559 57151 56902 57264 57914 58238 57812 57789 58036 57304 58026 58190 57673 57552 58034 58333 58637 57963 58151 58108 57904 57903 58311 57938 58307 58010 58279 58630 57770 57870 57901 57773 58141 58122 59016 58371 58734 58531 58626 58827 58255 58819 58575 58296 58381 58135 58615 58622 58381 58597 58550 58494 58642 59144 58960 58788 58695 59174 59001 58900 58324 59208 59561 58861 59310 59253 59321 59273 59907 59582 59550 59388 59569 60130 59976 59393 59521 59757 59571 60220 59904 60146 59970 59840 59866 60142 60089 60320 60209 60508 60134 60224 60520 60123 60406 60893 60412 60153 60436 60591 60660 60919 61007 61116 61095 60839 61406 61024 61093 60794 61188 61414 61491 61244 61777 61525 61508 61885 61440 61886 61688 61666 61595 61878 62074 62398 62033 62084 62192 61868 62881 62466 62497 62357 62250 62164 62605 62381 62588 63299 62996 63290 62848 63308 62477 63148 62937 63702 63462 63085 63620 63622 63055 63745 63341 63246 64554 63608 63747 64262 64155 63983 64055 64253 64344 64675 64690 64834 65338 65444 65961 66613 66746 67648 67968 68762 69767 70485 72734 74365 77526 80957 84910 91321 99852 109772 118724 123208 116322 101859 87488 78421 73138 70987 69638 68790 67942 67667 67121 67197 66679 67231 66740 66536 66360 66489 66026 66659 66295 66317 66355 66213 66486 66433 65868 66805 66543 66789 66181 66494 66553 66091 66542 66977 66869 66956 67117 66884 66502 66687 67083 66889 66727 66995 67226 67086 66754 66967 67309 66823 67068 67091 67479 67238 67765 67517 67905 66939 68149 67996 68124 68579 67942 68029 68196 67644 67210 67662 67322 67285 67254 67381 67226 67479 67389 66871 67443 66720 67256 67197 67023 67215 67385 67123 67272 67021 67727 67262 67734 67475 67287 66894 67795 67987 68249 67895 67716 67692 67645 67540 67330 67028 66805 67016 67391 67171 67066 67077 66996 67308 67360 66717 67148 67516 66993 66901 67347 67628 66483 66670 67161 66595 67251 67217 66469 66791 67553 67257 67049 66629 66592 66578 66617 66808 67400 66950 66454 66550 67240 66505 66428 66571 67697 66641 67009 66232 66577 66966 66238 66980 66687 65968 66214 66177 66917 66162 66313 66411 66070 66307 66154 65851 65941 65893 65834 65932 66120 66497 65820 66169 66181 66117 66008 65746 65953 66068 65525 65069 65660 65716 65286 65864 65149 65478 65533 65192 65407 64935 65714 65189 65714 65038 65382 65453 65320 65276 65169 65007 64418 64821 64698 64673 65196 64531 64807 64413 64590 64495 64568 64689 64417 64386 63843 63729 64106 63981 64138 63833 64488 64278 63694 63601 64501 63402 63565 63587 63658 63622 63229 62896 63059 63020 62659 63213 62735 62433 62806 62762 61830 62521 62396 62252 62222 62346 62151 61940 61832 62384 61492 61890 62013 61598 61235 61129 61124 61543 61300 61672 61466 60990 61449 61123 61184 61188 61013 60543 60547 60597 60408 60258 60416 60307 60182 60479 60223 59633 60070 60143 59793 59819 59791 59356 59568 59467 59540 59367 59661 59201 59379 59275 59172 59034 59121 59126 59171 59276 58516 59324 59292 59141 58788 58528 58833 58714 59502 59729 59792 60968 62777 64326 67261 70696 74589 76839 75479 71006 67179 63298 61155 58406 58962 57633 57345 56973 57133 56622 56558 56382 56148 55570 56055 55846 56759 56053 55826 55737 55893 55686 55563 55587 55226 55257 55348 55106 54767 54626 54961 55298 54665 54375 54666 54249 54287 54044 54104 54683 54339 54420 53920 53758 53684 53808 54082 53713 53489 53638 53234 53536 53643 53143 53511 53185 53048 53507 53394 52741 52918 52969 52854 52665 52769 52496 52488 52665 52429 52427 52293 52272 51791 51832 52022 52019 51998 51640 51835 52125 51815 51474 51507 51320 51412 51483 51322 51354 51407 50981 51089 51217 51413 50793 50750 50787 50709 50402 50661 50919 50293 50761 50605 50310 50104 50202 50015 50362 50295 50070 50070 50072 49677 50014 49224 49843 49858 49379 49513 49217 49500 49499 49513 49408 49218 49471 48921 49305 49003 49172 49304 48988 48656 48801 49028 48610 48441 48748 48624 48835 48355 48337 48198 48451 48942 48686 48977 48598 48482 48294 48457 48184 48613 48849 48902 48631 49242 49345 48995 49542 48793 48910 48766 48361 48253 47788 47990 48081 47932 47533 47863 48029 47790 47707 47427 47178 47266 47399 47498 47314 46923 46794 46781 46756 46950 46376 46731 46591 46835 46491 46674 46656 46704 46973 46703 46929 46815 47059 47460 46592 47328 47395 47270 47749 47549 47645 48067 48191 48634 48644 47691 47976 47757 47604 47617 47298 46867 46966 46649 46213 45786 45984 45672 45197 45024 45478 45229 45185 45036 44600 44851 44633 44807 44664 44742 44609 45054 44576 44512 44261 44644 44113 44511 44483 44670 45234 45023 45630 45604 44613 44746 44657 44318 44375 43913 43786 43893 43608 43996 44267 43608 43826 43778 43376 43604 43247 43404 43435 43522 43711 43614 42993 43440 43238 43567 43544 43509 43268 43642 43291 43092 43169 43084 43074 42885 43287 43123 43132 42509 43532 42796 43071 43016 43209 42802 43426 43392 43325 43616 43282 43430 43721 43780 43667 43999 44576 44497 45027 45519 46054 47296 48512 50122 52703 56516 61742 68996 79000 87995 89808 82375 74217 69675 61956 54203 49809 46683 45429 44519 43769 43304 42642 42585 42085 42231 42194 41897 41873 41455 41431 41200 41686 41105 41068 41172 41202 41228 40925 40859 40457 41153 40761 40523 40615 40857 40346 40289 40637 40369 40545 40496 39931 40665 40456 39809 40031 40296 40358 40259 40481 39924 39879 40238 40314 39678 40276 39864 40193 40295 40111 39801 39976 40106 40050 40681 40326 40148 40278 40519 40266 39918 40031 39770 39714 39808 39514 39392 39544 38737 39067 38808 39011 38782 38664 38411 38905 38784 38879 38267 38414 38852 38792 38344 38341 38304 38170 38419 38187 38298 38217 38093 37712 38061 38478 38274 38299 38001 38033 37860 37786 38073 37934 37985 38075 37713 37900 37649 37846 37605 37739 37706 37307 37641 37382 37481 37561 37708 37951 37580 37388 37545 37997 37513 37873 37729 38622 38703 39100 40214 40673 40529 40186 40109 40024 39403 39056 38995 39151 39636 39247 40213 41106 41323 41874 41470 40706 40740 40289 39784 38799 38637 38475 38022 37997 37491 37191 37151 36887 36763 36625 36534 36667 36554 36775 36546 36189 36268 36247 36115 36123 36658 35980 36345 35983 36473 36379 36015 36166 36062 36112 35918 35988 35736 35995 36166 36416 35850 36290 36228 35929 35901 35973 35790 35950 36145 36190 35885 36221 35767 35710 35373 35903 36079 35629 35698 35559 35778 35689 35370 35821 36057 36237 35260 35860 35626 36029 35961 35877 36384 36425 37065 37355 37544 38127 38301 37982 38113 37682 37962 37525 37102 37323 37203 37292 36874 36562 36490 36687 36141 36344 35835 35665 35807 35518 35446 35282 35243 35288 35212 35311 35366 35291 35130 35553 35143 35426 35002 35398 35543 35492 35454 35255 34951 35022 34950 35020 34799 35069 34875 34350 34749 34928 34312 34613 34278 34618 34241 34101 34188 34319 34214 34277 34244 34274 34319 33804 33840 34411 34404 34480 34321 34325 34312 33913 34235 34161 34247 33878 34146 33932 34043 34337 33798 34224 34130 34457 34498 34240 34205 34532 34726 34508 35155 35293 36670 38223 40768 42556 42577 40859 39616 39150 38430 37383 35877 34816 34213 34257 34178 34029 33989 33690 33740 33881 33357 33825 33685 33930 33448 33269 33344 33520 33428 33367 33567 33584 33262 33581 33257 33298 33348 33100 33410 33262 32946 32902 33016 33251 33589 33346 33325 33404 33243 33416 33350 33444 33201 33148 33332 33614 33599 33901 33813 33683 34108 34423 34372 34690 34858 34396 34316 33927 34339 33545 33786 33488 33313 33577 33167 32758 33189 32789 32803 33087 32654 32546 32604 32607 32474 32418 32212 32830 32371 32329 32449 32014 32323 32097 32062 32219 32253 32028 31950 31938 31909 32299 32053 32098 31757 32048 31485 31657 31946 31814 31701 31636 31833 31605 31840 31677 31606 32092 32532 32380 32043 32212 31875 31582 32066 31658 31200 31283 31385 31502 31749 31121 31227 31366 31163 31190 31242 31779 31597 31296 31335 31551 31257 31178 31396 31420 31433 31376 31133 31056 31294 30857 30950 31187 31322 31181 30892 31060 31023 30851 30825 30527 30367 30732 31210 30420 30796 30816 30344 30735 30713 30624 30850 30517 30719 30579 30606 30478 30548 30154 30276 30536 30336 30388 30340 30158 30487 30050 30385 30495 30102 30337 30621 30061 30190 30044 30094 30401 30162 30087 30050 30372 30019 30218 30055 30062 29952 29751 29872 29874 29427 29506 29798 29598 29871 29562 29736 29663 29821 29923 29556 29867 29914 29696 29446 29635 29656 29712 29742 29477 29629 29331 29798 29529 29839 29488 29751 29539 29764 29548 29577 29788 29835 29646 29552 29946 29543 29560 29521 29957 29678 29679 30203 30230 30136 29964 30579 30861 30507 30590 30835 30646 30491 30200 29793 29655 29771 29825 29439 29224 29381 29405 29435 29329 28988 28981 29099 28924 28855 28964 29127 28854 28635 29058 28645 28526 28364 28373 28619 28832 28539 28669 28565 28333 28610 28545 28655 28229 28404 28678 28110 28536 27988 28789 28393 28206 28281 28254 28307 28339 28220 28104 27905 28354 28068 27818 27973 28019 28397 28164 28015 28324 28066 28236 27662 27583 28074 27758 27772 28071 27788 27941 27794 27716 27699 27633 27915 28210 28179 28906 29408 30065 30010 29718 28504 29063 28944 28884 28787 28406 27947 27868 27884 27615 27611 27906 27648 27355 27427 27412 27423 27425 27418 27724 27106 27420 27152 27382 27416 27499 27141 27098 27364 27118 27608 27429 26928 27161 27234 27037 27242 27244 27259 26985 27258 27021 27260 26628 27500 27365 26960 27129 26939 27042 27147 27063 27228 27382 27422 27138 27141 27235 27268 27211 27321 27630 27747 27061 27047 27291 27352 27125 27218 27208 27262 27309 27580 27193 27423 27367 27410 27757 27697 28355 27950 28166 27759 27784 27530 27465 27549 27469 27383 27391 26903 26682 26566 26942 26722 26372 26845 26686 26695 26214 26277 26395 26813 26492 26171 26068 25937 26120 26242 26257 26243 26370 26370 26092 26168 26042 26394 25973 26287 26256 25863 26035 26162 26002 25692 25687 25974 26055 26035 26061 26123 25900 25891 26147 25918 26340 26015 25701 25833 25782 25947 25827 25775 25569 26086 26096 25919 25937 25937 25926 25703 25844 25916 26072 26172 26084 25864 25684 25863 25862 25585 25954 25979 26155 25997 26043 26036 25860 25923 26173 26098 26205 26629 26183 26316 26294 26392 26488 26209 26282 26314 26100 26283 26169 26137 26356 25981 26004 25794 26020 26072 25486 25509 25732 25813 25877 25348 25338 25698 25389 25377 25439 25460 25341 25405 25322 25336 25311 25144 25194 25178 25202 25248 24851 25244 25179 25289 25111 25078 24962 24849 25112 25095 24886 24829 25104 25188 25041 24759 25079 24519 25017 24849 24909 24372 24772 24586 24973 24717 25001 24844 24943 24864 24665 24555 24609 24680 24797 24753 24648 24720 24422 24671 24792 24305 24540 24387 24263 24996 24753 24404 24817 24479 24758 24348 24685 24658 24518 24703 24563 24373 24665 24616 24451 24536 24269 24229 24399 24394 24126 24279 24192 24381 24419 24808 24568 24244 24310 24466 24320 24573 24198 24489 24505 24598 24350 24461 24498 24762 24690 24302 24394 24575 24585 24327 24434 24360 24394 24485 24655 24539 24461 24394 24544 24504 24314 24450 24537 24392 24309 24111 24273 24551 24277 24598 24807 24434 24845 24808 24823 24655 24363 24663 24377 24884 24425 24095 24269 24187 24268 23999 24049 24262 24146 23816 23731 24062 23843 24488 24268 24441 24095 24094 23656 23727 24017 24094 23791 24072 23843 23851 23738 23984 24171 23848 23562 23940 23756 23702 23752 24041 23594 23742 23935 23676 23976 24020 23770 23929 23737 23705 23946 24172 24232 23886 24006 24231 24208 24297 23817 24018 23759 23907 24174 23939 23819 23820 23827 23845 23875 23505 23870 23489 23692 23846 23617 23458 23631 23971 23547 23718 23440 23550 23865 23817 23672 23607 24018 23770 23870 23502 23779 23498 23305 23478 23708 23392 23405 23313 23073 23115 23227 23292 23508 23583 23015 23638 22964 23377 23446 23114 22883 23122 22880 22898 23340 23043 22821 22875 23244 23028 23054 22885 22831 22705 22885 22947 23278 23153 22812 22787 23018 23141 22655 22891 22958 23126 22921 22775 22603 22970 22804 23252 23193 22886 22921 22954 22873 23121 23076 23143 22710 22942 22823 23028 22686 22951 22827 23128 22753 23403 23162 22918 22656 22963 22885 22934 22844 23014 22649 22875 23278 22863 22778 23244 22875 23240 23034 23054 23046 23218 23028 22928 23095 22950 22897 23017 22866 22939 22452 22558 22487 22662 22579 22535 22504 22510 22447 22587 22466 22369 22279 22305 22534 22446 22429 22558 22571 22323 22313 22578 22666 22438 22259 22286 22237 22078 22259 22280 22853 22510 22902 22797 22827 22723 22497 22312 22395 22309 22367 22570 22558 22272 21992 21976 22233 22432 22147 22272 22016 22151 22068 21939 22266 22149 22122 22187 22148 21520 21958 21913 22173 21853 21955 22082 22109 21943 21914 21849 22201 21994 21656 22022 22328 21906 22135 22198 21777 21948 21829 21805 22163 22027 21663 22042 22013 22409 22029 22323 22156 22236 21928 21915 22080 21994 21839 22097 21935 22114 21875 22038 21767 22025 22122 22113 21855 22269 22065 21907 21959 21928 21657 22247 22104 22074 22196 21925 22022 22226 21825 21803 21705 21858 21579 21858 21762 21712 21244 21700 21563 21516 21549 21778 21555 21389 21415 21407 21363 21429 21765 21234 21567 21370 21373 21307 21106 21306</intensities>
			</dataPoints>
		</scan>
	</xrdMeasurement>
</xrdMeasurements>
